/* sp-gen2.dat */

param p := 1;
param q := 6;
param N := 6;

param : E : cost :=
1 1 100000
1 2 3
1 3 5
1 4 9
1 5 100000
1 6 100000
2 1 100000
2 2 100000
2 3 4
2 4 100000
2 5 4
2 6 100000
3 1 100000
3 2 100000
3 3 100000
3 4 100000
3 5 100000
3 6 10
4 1 1000000
4 2 100000
4 3 6
4 4 100000
4 5 100000
4 6 14
5 1 100000
5 2 100000
5 3 100000
5 4 100000
5 5 100000
5 6 6
6 1 100000
6 2 100000
6 3 100000
6 4 100000
6 5 100000
6 6 100000
;
end;
